c B(2) E(2,2) R(2) B(3) E(3,2) E(2,3) R(3) E(1,2) B(1) R(1) E(2,1) E(2,0) E(0,2) R(0) B(0) E(3,3) E(1,3) E(3,1) E(0,3) E(3,0) E(1,1) E(1,0) E(0,1) E(0,0)
c 1 2 3 4 5 6 7 8 9 10 11 12 13 14 15 16 17 18 19 20 21 22 23 24
p cnf 24 36
-24 0
-21 0
-2 0
-16 0
15 14 0
9 10 0
1 3 0
4 7 0
23 -22 0
13 -12 0
19 -20 0
22 -23 0
8 -11 0
17 -18 0
12 -13 0
11 -8 0
6 -5 0
20 -19 0
18 -17 0
5 -6 0
-15 -14 0
-9 -10 0
-1 -3 0
-4 -7 0
15 9 -22 0
15 1 -12 0
15 4 -20 0
9 1 -11 0
9 4 -18 0
1 4 -5 0
14 10 -22 0
14 3 -12 0
14 7 -20 0
10 3 -11 0
10 7 -18 0
3 7 -5 0
